c Sudoku solution
p cnf 729 0
138 0
146 0
167 0
227 0
265 0
274 0
281 0
319 0
492 0
524 0
542 0
588 0
637 0
663 0
675 0
776 0
799 0
855 0
445 0
877 0
925 0
785 0
932 0
882 0
959 0
249 0
994 0
983 0
189 0
629 0
612 0
252 0
298 0
839 0
762 0
978 0
891 0
696 0
684 0
487 0
593 0
557 0
456 0
464 0
569 0
479 0
571 0
386 0
397 0
195 0
335 0
114 0
734 0
844 0
515 0
536 0
826 0
813 0
868 0
966 0
216 0
233 0
423 0
431 0
418 0
728 0
354 0
658 0
641 0
947 0
751 0
743 0
717 0
911 0
348 0
153 0
361 0
121 0
322 0
172 0
373 0
